coords = array2d(1..49, 1..2, [539, 715, 514, 277, 907, 882, 910, 732, 300,
    290, 814, 755, 208, 744, 420, 725, 458, 40, 65, 45, 737, 314, 15,
    153, 94, 869, 258, 112, 318, 952, 40, 591, 14, 414, 766, 1, 167,
    573, 788, 116, 848, 456, 337, 415, 195, 354, 838, 324, 962, 985,
    74, 115, 79, 431, 209, 256, 616, 911, 261, 959, 378, 794, 670,
    272, 913, 449, 908, 783, 97, 511, 559, 666, 714, 460, 832, 716,
    414, 540, 995, 953, 620, 539, 418, 577, 945, 826, 155, 852, 849,
    700, 271, 172, 502, 476, 936, 201, 921, 595]);

n = 49;

